(set-info :smt-lib-version 2.6)
(set-logic QF_FP)
(set-option :produce-models true)
(set-info :source |Random FP created by PyMPF|)
(set-info :license |https://www.gnu.org/licenses/gpl-3.0.html|)
(set-info :category random)
(set-info :status sat)
(declare-const x Float32)
(assert (= x (fp #b1 #b00111000 #b00001011111001101011000)))
;; x should be Float32(0x9C05F358 [Rational(-1097323, 2475880078570760549798248448), -0.000000])

(declare-const y Float32)
(assert (= y (fp #b1 #b00000011 #b00000001110101101111111)))
;; y should be Float32(0x8180EB7F [Rational(-8448895, 178405961588244985132285746181186892047843328), -0.000000])

(declare-const z Float32)
(assert (= z (fp #b1 #b00000000 #b00000000000000000000000)))
;; z should be Float32(-zero)

(declare-const result Float32)
(assert (= result (fp.fma RTN x y z)))
(assert (= result ((_ to_fp 8 24) #x00000000)))
(check-sat)
(exit)
